
Gurobi 7.5.1 (win64, Python) logging started 08/19/17 14:57:38

Optimize a model with 77 rows, 1172 columns and 6948 nonzeros
Variable types: 0 continuous, 1172 integer (1172 binary)
Coefficient statistics:
  Matrix range     [1e+00, 1e+00]
  Objective range  [0e+00, 0e+00]
  Bounds range     [1e+00, 1e+00]
  RHS range        [1e+00, 1e+00]
Presolve removed 0 rows and 172 columns
Presolve time: 0.03s
Presolved: 77 rows, 1000 columns, 5922 nonzeros
Variable types: 0 continuous, 1000 integer (1000 binary)

Root relaxation: objective 0.000000e+00, 165 iterations, 0.00 seconds

    Nodes    |    Current Node    |     Objective Bounds      |     Work
 Expl Unexpl |  Obj  Depth IntInf | Incumbent    BestBd   Gap | It/Node Time

     0     0    0.00000    0   72          -    0.00000      -     -    0s
     0     0    0.00000    0   80          -    0.00000      -     -    0s
     0     0    0.00000    0   87          -    0.00000      -     -    0s
     0     0    0.00000    0   87          -    0.00000      -     -    0s
     0     2    0.00000    0   87          -    0.00000      -     -    0s
H  116    14                       0.0000000    0.00000  0.00%  49.3    0s

Cutting planes:
  Clique: 36
  MIR: 4

Explored 121 nodes (7047 simplex iterations) in 0.39 seconds
Thread count was 8 (of 8 available processors)

Solution count 1: 0 

Optimal solution found (tolerance 1.00e-04)
Best objective 0.000000000000e+00, best bound 0.000000000000e+00, gap 0.0000%

Gurobi 7.5.1 (win64, Python) logging started 08/19/17 14:58:54

